Set parameter TokenServer to value "hpc-licenses.hpcc.usc.edu"
Set parameter TimeLimit to value 3600
Gurobi Optimizer version 9.5.1 build v9.5.1rc2 (linux64)
Thread count: 20 physical cores, 20 logical processors, using up to 20 threads
Optimize a model with 6007 rows, 4529 columns and 24534 nonzeros
Model fingerprint: 0xab3291d0
Variable types: 4506 continuous, 23 integer (23 binary)
Coefficient statistics:
  Matrix range     [1e+00, 1e+00]
  Objective range  [2e-03, 1e+00]
  Bounds range     [1e+00, 1e+00]
  RHS range        [1e+00, 2e+02]
Presolve removed 1520 rows and 1515 columns
Presolve time: 0.06s
Presolved: 4487 rows, 3014 columns, 21975 nonzeros
Variable types: 2994 continuous, 20 integer (20 binary)
Found heuristic solution: objective 278.6802890

Root relaxation: objective 2.882976e+02, 2495 iterations, 0.10 seconds (0.14 work units)

    Nodes    |    Current Node    |     Objective Bounds      |     Work
 Expl Unexpl |  Obj  Depth IntInf | Incumbent    BestBd   Gap | It/Node Time

     0     0  288.29758    0    2  278.68029  288.29758  3.45%     -    0s
     0     0  288.21943    0    2  278.68029  288.21943  3.42%     -    0s
H    0     0                     279.2252598  288.18220  3.21%     -    0s
     0     0  288.18220    0    2  279.22526  288.18220  3.21%     -    0s
H    0     0                     287.7930628  287.94101  0.05%     -    0s
     0     0  287.94101    0    2  287.79306  287.94101  0.05%     -    0s

Cutting planes:
  Gomory: 4
  MIR: 61
  Flow cover: 31
  RLT: 6

Explored 1 nodes (2785 simplex iterations) in 0.55 seconds (0.51 work units)
Thread count was 20 (of 20 available processors)

Solution count 3: 287.793 279.225 278.68 

Optimal solution found (tolerance 1.00e-04)
Best objective 2.877930628117e+02, best bound 2.877930628117e+02, gap 0.0000%



#########node  1
V1.7
#########node  2
0.025974025974025976,0.974025974025974
#########node  3
1.0,0.0


Total Solving Time 0.9200685024261475
obj value 287.79306281167334
Policy Regret train (Sum) 2.0340319405192426
Best Treatment Found train (%) 82.8
treatment classification acc train (%) 32.800000000000004
Policy Regret test (Sum) 23.056351074388168
Best Treatment Found test (%) 86.09
treatment classification acc test (%) 35.839999999999996
